p ds 20 5
1 2
1 3
1 4
1 6
1 8
1 15
1 17
2 4
2 5
2 6
2 7
2 9
2 10
2 11
2 19
3 6
3 8
3 11
3 12
3 13
3 14
3 15
3 18
3 19
4 6
4 7
4 12
4 13
4 14
4 20
5 6
5 10
5 14
5 16
5 18
6 7
6 10
6 11
6 12
6 13
6 15
6 18
6 20
7 8
7 9
7 10
7 12
7 13
7 14
7 15
8 9
8 10
8 13
8 14
8 15
8 16
9 10
9 13
9 14
9 16
9 17
9 19
10 11
10 17
10 19
11 12
11 13
11 14
11 16
11 18
12 14
12 17
12 18
13 14
13 18
14 17
15 16
15 18
16 18
16 19
17 19
18 19
18 20
